WARNING: for repeatability, setting FPU to use double precision
============================[ Problem Statistics ]=============================
|                                                                             |
|  Number of variables:          8399                                         |
|  Number of clauses:           67395                                         |
|  Parse time:                   0.02 s                                       |
|  Eliminated clauses:           0.01 Mb                                      |
|  Simplification time:          0.03 s                                       |
|                                                                             |
============================[ Search Statistics ]==============================
| Conflicts |          ORIGINAL         |          LEARNT          | Progress |
|           |    Vars  Clauses Literals |    Limit  Clauses Lit/Cl |          |
===============================================================================
|       100 |    1024     9259    24650 |     3394      100     22 | 80.819 % |
|       250 |    1024     9259    24650 |     3734      250     39 | 80.819 % |
===============================================================================
restarts              : 3
conflicts             : 259            (4329 /sec)
decisions             : 1625           (0.00 % random) (27162 /sec)
propagations          : 21955          (366981 /sec)
conflict literals     : 10836          (5.64 % deleted)
Memory used           : 26.00 MB
CPU time              : 0.059826 s

SATISFIABLE
WARNING: for repeatability, setting FPU to use double precision
============================[ Problem Statistics ]=============================
|                                                                             |
|  Number of variables:          8399                                         |
|  Number of clauses:           67395                                         |
|  Parse time:                   0.02 s                                       |
|  Eliminated clauses:           0.01 Mb                                      |
|  Simplification time:          0.02 s                                       |
|                                                                             |
============================[ Search Statistics ]==============================
| Conflicts |          ORIGINAL         |          LEARNT          | Progress |
|           |    Vars  Clauses Literals |    Limit  Clauses Lit/Cl |          |
===============================================================================
|       100 |    1024     9259    24650 |     3394      100     22 | 80.819 % |
|       250 |    1024     9259    24650 |     3734      250     39 | 80.819 % |
===============================================================================
restarts              : 3
conflicts             : 259            (5318 /sec)
decisions             : 1625           (0.00 % random) (33367 /sec)
propagations          : 21955          (450812 /sec)
conflict literals     : 10836          (5.64 % deleted)
Memory used           : 26.00 MB
CPU time              : 0.048701 s

SATISFIABLE
